
#######################################################################
##                                                                   ##
##                  Single chain_4000 beads                          ##
##                         Jan 2017                                  ##
##                                                                   ##
#######################################################################

units		    lj
boundary	    p p p
atom_style	    molecular
read_data	    N90_M_100_P_0_01_contacts_Parallel.data
#read_restart	restart.Chain90_M_100_eta_11_series.70000000

variable        root index N90_M_100_P_0_01_E_11_Parallel
variable        Nf equal 10000
variable        Ne equal 100
variable        Nr equal ${Nf}/${Ne}
variable        Nrestart equal 10000000

variable	RandGen equal 1800#1011
variable        Nrun equal 100000000#100000000
variable        Ndump equal 10000
variable	epsilon equal 11

########################((General information))#######################

compute         xAtom all property/atom x y z


variable 	 x1_1 equal c_xAtom[1][1]
variable 	 y1_1 equal c_xAtom[1][2]
variable 	 z1_1 equal c_xAtom[1][3]
variable 	 x1_2 equal c_xAtom[30][1]
variable 	 y1_2 equal c_xAtom[30][2]
variable 	 z1_2 equal c_xAtom[30][3]
variable 	 x1_3 equal c_xAtom[60][1]
variable 	 y1_3 equal c_xAtom[60][2]
variable 	 z1_3 equal c_xAtom[60][3]
variable 	 x1_4 equal c_xAtom[90][1]
variable 	 y1_4 equal c_xAtom[90][2]
variable 	 z1_4 equal c_xAtom[90][3]
variable 	 x2_1 equal c_xAtom[91][1]
variable 	 y2_1 equal c_xAtom[91][2]
variable 	 z2_1 equal c_xAtom[91][3]
variable 	 x2_2 equal c_xAtom[120][1]
variable 	 y2_2 equal c_xAtom[120][2]
variable 	 z2_2 equal c_xAtom[120][3]
variable 	 x2_3 equal c_xAtom[150][1]
variable 	 y2_3 equal c_xAtom[150][2]
variable 	 z2_3 equal c_xAtom[150][3]
variable 	 x2_4 equal c_xAtom[180][1]
variable 	 y2_4 equal c_xAtom[180][2]
variable 	 z2_4 equal c_xAtom[180][3]
variable 	 x3_1 equal c_xAtom[181][1]
variable 	 y3_1 equal c_xAtom[181][2]
variable 	 z3_1 equal c_xAtom[181][3]
variable 	 x3_2 equal c_xAtom[210][1]
variable 	 y3_2 equal c_xAtom[210][2]
variable 	 z3_2 equal c_xAtom[210][3]
variable 	 x3_3 equal c_xAtom[240][1]
variable 	 y3_3 equal c_xAtom[240][2]
variable 	 z3_3 equal c_xAtom[240][3]
variable 	 x3_4 equal c_xAtom[270][1]
variable 	 y3_4 equal c_xAtom[270][2]
variable 	 z3_4 equal c_xAtom[270][3]
variable 	 x4_1 equal c_xAtom[271][1]
variable 	 y4_1 equal c_xAtom[271][2]
variable 	 z4_1 equal c_xAtom[271][3]
variable 	 x4_2 equal c_xAtom[300][1]
variable 	 y4_2 equal c_xAtom[300][2]
variable 	 z4_2 equal c_xAtom[300][3]
variable 	 x4_3 equal c_xAtom[330][1]
variable 	 y4_3 equal c_xAtom[330][2]
variable 	 z4_3 equal c_xAtom[330][3]
variable 	 x4_4 equal c_xAtom[360][1]
variable 	 y4_4 equal c_xAtom[360][2]
variable 	 z4_4 equal c_xAtom[360][3]
variable 	 x5_1 equal c_xAtom[361][1]
variable 	 y5_1 equal c_xAtom[361][2]
variable 	 z5_1 equal c_xAtom[361][3]
variable 	 x5_2 equal c_xAtom[390][1]
variable 	 y5_2 equal c_xAtom[390][2]
variable 	 z5_2 equal c_xAtom[390][3]
variable 	 x5_3 equal c_xAtom[420][1]
variable 	 y5_3 equal c_xAtom[420][2]
variable 	 z5_3 equal c_xAtom[420][3]
variable 	 x5_4 equal c_xAtom[450][1]
variable 	 y5_4 equal c_xAtom[450][2]
variable 	 z5_4 equal c_xAtom[450][3]
variable 	 x6_1 equal c_xAtom[451][1]
variable 	 y6_1 equal c_xAtom[451][2]
variable 	 z6_1 equal c_xAtom[451][3]
variable 	 x6_2 equal c_xAtom[480][1]
variable 	 y6_2 equal c_xAtom[480][2]
variable 	 z6_2 equal c_xAtom[480][3]
variable 	 x6_3 equal c_xAtom[510][1]
variable 	 y6_3 equal c_xAtom[510][2]
variable 	 z6_3 equal c_xAtom[510][3]
variable 	 x6_4 equal c_xAtom[540][1]
variable 	 y6_4 equal c_xAtom[540][2]
variable 	 z6_4 equal c_xAtom[540][3]
variable 	 x7_1 equal c_xAtom[541][1]
variable 	 y7_1 equal c_xAtom[541][2]
variable 	 z7_1 equal c_xAtom[541][3]
variable 	 x7_2 equal c_xAtom[570][1]
variable 	 y7_2 equal c_xAtom[570][2]
variable 	 z7_2 equal c_xAtom[570][3]
variable 	 x7_3 equal c_xAtom[600][1]
variable 	 y7_3 equal c_xAtom[600][2]
variable 	 z7_3 equal c_xAtom[600][3]
variable 	 x7_4 equal c_xAtom[630][1]
variable 	 y7_4 equal c_xAtom[630][2]
variable 	 z7_4 equal c_xAtom[630][3]
variable 	 x8_1 equal c_xAtom[631][1]
variable 	 y8_1 equal c_xAtom[631][2]
variable 	 z8_1 equal c_xAtom[631][3]
variable 	 x8_2 equal c_xAtom[660][1]
variable 	 y8_2 equal c_xAtom[660][2]
variable 	 z8_2 equal c_xAtom[660][3]
variable 	 x8_3 equal c_xAtom[690][1]
variable 	 y8_3 equal c_xAtom[690][2]
variable 	 z8_3 equal c_xAtom[690][3]
variable 	 x8_4 equal c_xAtom[720][1]
variable 	 y8_4 equal c_xAtom[720][2]
variable 	 z8_4 equal c_xAtom[720][3]
variable 	 x9_1 equal c_xAtom[721][1]
variable 	 y9_1 equal c_xAtom[721][2]
variable 	 z9_1 equal c_xAtom[721][3]
variable 	 x9_2 equal c_xAtom[750][1]
variable 	 y9_2 equal c_xAtom[750][2]
variable 	 z9_2 equal c_xAtom[750][3]
variable 	 x9_3 equal c_xAtom[780][1]
variable 	 y9_3 equal c_xAtom[780][2]
variable 	 z9_3 equal c_xAtom[780][3]
variable 	 x9_4 equal c_xAtom[810][1]
variable 	 y9_4 equal c_xAtom[810][2]
variable 	 z9_4 equal c_xAtom[810][3]
variable 	 x10_1 equal c_xAtom[811][1]
variable 	 y10_1 equal c_xAtom[811][2]
variable 	 z10_1 equal c_xAtom[811][3]
variable 	 x10_2 equal c_xAtom[840][1]
variable 	 y10_2 equal c_xAtom[840][2]
variable 	 z10_2 equal c_xAtom[840][3]
variable 	 x10_3 equal c_xAtom[870][1]
variable 	 y10_3 equal c_xAtom[870][2]
variable 	 z10_3 equal c_xAtom[870][3]
variable 	 x10_4 equal c_xAtom[900][1]
variable 	 y10_4 equal c_xAtom[900][2]
variable 	 z10_4 equal c_xAtom[900][3]
variable 	 x11_1 equal c_xAtom[901][1]
variable 	 y11_1 equal c_xAtom[901][2]
variable 	 z11_1 equal c_xAtom[901][3]
variable 	 x11_2 equal c_xAtom[930][1]
variable 	 y11_2 equal c_xAtom[930][2]
variable 	 z11_2 equal c_xAtom[930][3]
variable 	 x11_3 equal c_xAtom[960][1]
variable 	 y11_3 equal c_xAtom[960][2]
variable 	 z11_3 equal c_xAtom[960][3]
variable 	 x11_4 equal c_xAtom[990][1]
variable 	 y11_4 equal c_xAtom[990][2]
variable 	 z11_4 equal c_xAtom[990][3]
variable 	 x12_1 equal c_xAtom[991][1]
variable 	 y12_1 equal c_xAtom[991][2]
variable 	 z12_1 equal c_xAtom[991][3]
variable 	 x12_2 equal c_xAtom[1020][1]
variable 	 y12_2 equal c_xAtom[1020][2]
variable 	 z12_2 equal c_xAtom[1020][3]
variable 	 x12_3 equal c_xAtom[1050][1]
variable 	 y12_3 equal c_xAtom[1050][2]
variable 	 z12_3 equal c_xAtom[1050][3]
variable 	 x12_4 equal c_xAtom[1080][1]
variable 	 y12_4 equal c_xAtom[1080][2]
variable 	 z12_4 equal c_xAtom[1080][3]
variable 	 x13_1 equal c_xAtom[1081][1]
variable 	 y13_1 equal c_xAtom[1081][2]
variable 	 z13_1 equal c_xAtom[1081][3]
variable 	 x13_2 equal c_xAtom[1110][1]
variable 	 y13_2 equal c_xAtom[1110][2]
variable 	 z13_2 equal c_xAtom[1110][3]
variable 	 x13_3 equal c_xAtom[1140][1]
variable 	 y13_3 equal c_xAtom[1140][2]
variable 	 z13_3 equal c_xAtom[1140][3]
variable 	 x13_4 equal c_xAtom[1170][1]
variable 	 y13_4 equal c_xAtom[1170][2]
variable 	 z13_4 equal c_xAtom[1170][3]
variable 	 x14_1 equal c_xAtom[1171][1]
variable 	 y14_1 equal c_xAtom[1171][2]
variable 	 z14_1 equal c_xAtom[1171][3]
variable 	 x14_2 equal c_xAtom[1200][1]
variable 	 y14_2 equal c_xAtom[1200][2]
variable 	 z14_2 equal c_xAtom[1200][3]
variable 	 x14_3 equal c_xAtom[1230][1]
variable 	 y14_3 equal c_xAtom[1230][2]
variable 	 z14_3 equal c_xAtom[1230][3]
variable 	 x14_4 equal c_xAtom[1260][1]
variable 	 y14_4 equal c_xAtom[1260][2]
variable 	 z14_4 equal c_xAtom[1260][3]
variable 	 x15_1 equal c_xAtom[1261][1]
variable 	 y15_1 equal c_xAtom[1261][2]
variable 	 z15_1 equal c_xAtom[1261][3]
variable 	 x15_2 equal c_xAtom[1290][1]
variable 	 y15_2 equal c_xAtom[1290][2]
variable 	 z15_2 equal c_xAtom[1290][3]
variable 	 x15_3 equal c_xAtom[1320][1]
variable 	 y15_3 equal c_xAtom[1320][2]
variable 	 z15_3 equal c_xAtom[1320][3]
variable 	 x15_4 equal c_xAtom[1350][1]
variable 	 y15_4 equal c_xAtom[1350][2]
variable 	 z15_4 equal c_xAtom[1350][3]
variable 	 x16_1 equal c_xAtom[1351][1]
variable 	 y16_1 equal c_xAtom[1351][2]
variable 	 z16_1 equal c_xAtom[1351][3]
variable 	 x16_2 equal c_xAtom[1380][1]
variable 	 y16_2 equal c_xAtom[1380][2]
variable 	 z16_2 equal c_xAtom[1380][3]
variable 	 x16_3 equal c_xAtom[1410][1]
variable 	 y16_3 equal c_xAtom[1410][2]
variable 	 z16_3 equal c_xAtom[1410][3]
variable 	 x16_4 equal c_xAtom[1440][1]
variable 	 y16_4 equal c_xAtom[1440][2]
variable 	 z16_4 equal c_xAtom[1440][3]
variable 	 x17_1 equal c_xAtom[1441][1]
variable 	 y17_1 equal c_xAtom[1441][2]
variable 	 z17_1 equal c_xAtom[1441][3]
variable 	 x17_2 equal c_xAtom[1470][1]
variable 	 y17_2 equal c_xAtom[1470][2]
variable 	 z17_2 equal c_xAtom[1470][3]
variable 	 x17_3 equal c_xAtom[1500][1]
variable 	 y17_3 equal c_xAtom[1500][2]
variable 	 z17_3 equal c_xAtom[1500][3]
variable 	 x17_4 equal c_xAtom[1530][1]
variable 	 y17_4 equal c_xAtom[1530][2]
variable 	 z17_4 equal c_xAtom[1530][3]
variable 	 x18_1 equal c_xAtom[1531][1]
variable 	 y18_1 equal c_xAtom[1531][2]
variable 	 z18_1 equal c_xAtom[1531][3]
variable 	 x18_2 equal c_xAtom[1560][1]
variable 	 y18_2 equal c_xAtom[1560][2]
variable 	 z18_2 equal c_xAtom[1560][3]
variable 	 x18_3 equal c_xAtom[1590][1]
variable 	 y18_3 equal c_xAtom[1590][2]
variable 	 z18_3 equal c_xAtom[1590][3]
variable 	 x18_4 equal c_xAtom[1620][1]
variable 	 y18_4 equal c_xAtom[1620][2]
variable 	 z18_4 equal c_xAtom[1620][3]
variable 	 x19_1 equal c_xAtom[1621][1]
variable 	 y19_1 equal c_xAtom[1621][2]
variable 	 z19_1 equal c_xAtom[1621][3]
variable 	 x19_2 equal c_xAtom[1650][1]
variable 	 y19_2 equal c_xAtom[1650][2]
variable 	 z19_2 equal c_xAtom[1650][3]
variable 	 x19_3 equal c_xAtom[1680][1]
variable 	 y19_3 equal c_xAtom[1680][2]
variable 	 z19_3 equal c_xAtom[1680][3]
variable 	 x19_4 equal c_xAtom[1710][1]
variable 	 y19_4 equal c_xAtom[1710][2]
variable 	 z19_4 equal c_xAtom[1710][3]
variable 	 x20_1 equal c_xAtom[1711][1]
variable 	 y20_1 equal c_xAtom[1711][2]
variable 	 z20_1 equal c_xAtom[1711][3]
variable 	 x20_2 equal c_xAtom[1740][1]
variable 	 y20_2 equal c_xAtom[1740][2]
variable 	 z20_2 equal c_xAtom[1740][3]
variable 	 x20_3 equal c_xAtom[1770][1]
variable 	 y20_3 equal c_xAtom[1770][2]
variable 	 z20_3 equal c_xAtom[1770][3]
variable 	 x20_4 equal c_xAtom[1800][1]
variable 	 y20_4 equal c_xAtom[1800][2]
variable 	 z20_4 equal c_xAtom[1800][3]



dump		total all custom ${Ndump} Positions_Traject_Parallel_P_0_01_M_100.lammpstrj id type x y z 
dump_modify	total sort id


#dump            total all xyz ${Ndump} dump.equi.xyz
#dump_modify 	total flush yes

#dump			total all xyz ${Ndump} positions_${epsilon}_series.txt
#dump_modify 	total flush yes
#dump_modify	total sort id


variable	epsilon1 equal 0.1
variable	epsilon2 equal ${epsilon}

variable	epsilon_11 equal ${epsilon1}

variable	epsilon_25 equal ${epsilon2}
variable	epsilon_34 equal ${epsilon2}
variable	epsilon_69 equal ${epsilon2}
variable	epsilon_78 equal ${epsilon2}
variable	epsilon_1013 equal ${epsilon2}
variable	epsilon_1112 equal ${epsilon2}
variable	epsilon_1417 equal ${epsilon2}
variable	epsilon_1516 equal ${epsilon2}
variable	epsilon_1821 equal ${epsilon2}
variable	epsilon_1920 equal ${epsilon2}
variable	epsilon_2225 equal ${epsilon2}
variable	epsilon_2324 equal ${epsilon2}
variable	epsilon_2629 equal ${epsilon2}
variable	epsilon_2728 equal ${epsilon2}
variable	epsilon_3033 equal ${epsilon2}
variable	epsilon_3132 equal ${epsilon2}
variable	epsilon_3437 equal ${epsilon2}
variable	epsilon_3536 equal ${epsilon2}
variable	epsilon_3841 equal ${epsilon2}
variable	epsilon_3940 equal ${epsilon2}
variable	epsilon_4245 equal ${epsilon2}
variable	epsilon_4344 equal ${epsilon2}
variable	epsilon_4649 equal ${epsilon2}
variable	epsilon_4748 equal ${epsilon2}
variable	epsilon_5053 equal ${epsilon2}
variable	epsilon_5152 equal ${epsilon2}
variable	epsilon_5457 equal ${epsilon2}
variable	epsilon_5556 equal ${epsilon2}
variable	epsilon_5861 equal ${epsilon2}
variable	epsilon_5960 equal ${epsilon2}
variable	epsilon_6265 equal ${epsilon2}
variable	epsilon_6364 equal ${epsilon2}
variable	epsilon_6669 equal ${epsilon2}
variable	epsilon_6768 equal ${epsilon2}
variable	epsilon_7073 equal ${epsilon2}
variable	epsilon_7172 equal ${epsilon2}
variable	epsilon_7477 equal ${epsilon2}
variable	epsilon_7576 equal ${epsilon2}
variable	epsilon_7881 equal ${epsilon2}
variable	epsilon_7980 equal ${epsilon2}
variable	epsilon_8285 equal ${epsilon2}
variable	epsilon_8384 equal ${epsilon2}
variable	epsilon_8689 equal ${epsilon2}
variable	epsilon_8788 equal ${epsilon2}
variable	epsilon_9093 equal ${epsilon2}
variable	epsilon_9192 equal ${epsilon2}
variable	epsilon_9497 equal ${epsilon2}
variable	epsilon_9596 equal ${epsilon2}
variable	epsilon_98101 equal ${epsilon2}
variable	epsilon_99100 equal ${epsilon2}
variable	epsilon_102105 equal ${epsilon2}
variable	epsilon_103104 equal ${epsilon2}
variable	epsilon_106109 equal ${epsilon2}
variable	epsilon_107108 equal ${epsilon2}
variable	epsilon_110113 equal ${epsilon2}
variable	epsilon_111112 equal ${epsilon2}
variable	epsilon_114117 equal ${epsilon2}
variable	epsilon_115116 equal ${epsilon2}
variable	epsilon_118121 equal ${epsilon2}
variable	epsilon_119120 equal ${epsilon2}
variable	epsilon_122125 equal ${epsilon2}
variable	epsilon_123124 equal ${epsilon2}
variable	epsilon_126129 equal ${epsilon2}
variable	epsilon_127128 equal ${epsilon2}
variable	epsilon_130133 equal ${epsilon2}
variable	epsilon_131132 equal ${epsilon2}
variable	epsilon_134137 equal ${epsilon2}
variable	epsilon_135136 equal ${epsilon2}
variable	epsilon_138141 equal ${epsilon2}
variable	epsilon_139140 equal ${epsilon2}
variable	epsilon_142145 equal ${epsilon2}
variable	epsilon_143144 equal ${epsilon2}
variable	epsilon_146149 equal ${epsilon2}
variable	epsilon_147148 equal ${epsilon2}
variable	epsilon_150153 equal ${epsilon2}
variable	epsilon_151152 equal ${epsilon2}
variable	epsilon_154157 equal ${epsilon2}
variable	epsilon_155156 equal ${epsilon2}
variable	epsilon_158161 equal ${epsilon2}
variable	epsilon_159160 equal ${epsilon2}
variable	epsilon_162165 equal ${epsilon2}
variable	epsilon_163164 equal ${epsilon2}
variable	epsilon_166169 equal ${epsilon2}
variable	epsilon_167168 equal ${epsilon2}
variable	epsilon_170173 equal ${epsilon2}
variable	epsilon_171172 equal ${epsilon2}
variable	epsilon_174177 equal ${epsilon2}
variable	epsilon_175176 equal ${epsilon2}
variable	epsilon_178181 equal ${epsilon2}
variable	epsilon_179180 equal ${epsilon2}
variable	epsilon_182185 equal ${epsilon2}
variable	epsilon_183184 equal ${epsilon2}
variable	epsilon_186189 equal ${epsilon2}
variable	epsilon_187188 equal ${epsilon2}
variable	epsilon_190193 equal ${epsilon2}
variable	epsilon_191192 equal ${epsilon2}
variable	epsilon_194197 equal ${epsilon2}
variable	epsilon_195196 equal ${epsilon2}
variable	epsilon_198201 equal ${epsilon2}
variable	epsilon_199200 equal ${epsilon2}
variable	epsilon_202205 equal ${epsilon2}
variable	epsilon_203204 equal ${epsilon2}
variable	epsilon_206209 equal ${epsilon2}
variable	epsilon_207208 equal ${epsilon2}
variable	epsilon_210213 equal ${epsilon2}
variable	epsilon_211212 equal ${epsilon2}
variable	epsilon_214217 equal ${epsilon2}
variable	epsilon_215216 equal ${epsilon2}
variable	epsilon_218221 equal ${epsilon2}
variable	epsilon_219220 equal ${epsilon2}
variable	epsilon_222225 equal ${epsilon2}
variable	epsilon_223224 equal ${epsilon2}
variable	epsilon_226229 equal ${epsilon2}
variable	epsilon_227228 equal ${epsilon2}
variable	epsilon_230233 equal ${epsilon2}
variable	epsilon_231232 equal ${epsilon2}
variable	epsilon_234237 equal ${epsilon2}
variable	epsilon_235236 equal ${epsilon2}
variable	epsilon_238241 equal ${epsilon2}
variable	epsilon_239240 equal ${epsilon2}
variable	epsilon_242245 equal ${epsilon2}
variable	epsilon_243244 equal ${epsilon2}
variable	epsilon_246249 equal ${epsilon2}
variable	epsilon_247248 equal ${epsilon2}
variable	epsilon_250253 equal ${epsilon2}
variable	epsilon_251252 equal ${epsilon2}
variable	epsilon_254257 equal ${epsilon2}
variable	epsilon_255256 equal ${epsilon2}
variable	epsilon_258261 equal ${epsilon2}
variable	epsilon_259260 equal ${epsilon2}
variable	epsilon_262265 equal ${epsilon2}
variable	epsilon_263264 equal ${epsilon2}
variable	epsilon_266269 equal ${epsilon2}
variable	epsilon_267268 equal ${epsilon2}
variable	epsilon_270273 equal ${epsilon2}
variable	epsilon_271272 equal ${epsilon2}
variable	epsilon_274277 equal ${epsilon2}
variable	epsilon_275276 equal ${epsilon2}
variable	epsilon_278281 equal ${epsilon2}
variable	epsilon_279280 equal ${epsilon2}
variable	epsilon_282285 equal ${epsilon2}
variable	epsilon_283284 equal ${epsilon2}
variable	epsilon_286289 equal ${epsilon2}
variable	epsilon_287288 equal ${epsilon2}
variable	epsilon_290293 equal ${epsilon2}
variable	epsilon_291292 equal ${epsilon2}
variable	epsilon_294297 equal ${epsilon2}
variable	epsilon_295296 equal ${epsilon2}
variable	epsilon_298301 equal ${epsilon2}
variable	epsilon_299300 equal ${epsilon2}
variable	epsilon_302305 equal ${epsilon2}
variable	epsilon_303304 equal ${epsilon2}
variable	epsilon_306309 equal ${epsilon2}
variable	epsilon_307308 equal ${epsilon2}
variable	epsilon_310313 equal ${epsilon2}
variable	epsilon_311312 equal ${epsilon2}
variable	epsilon_314317 equal ${epsilon2}
variable	epsilon_315316 equal ${epsilon2}
variable	epsilon_318321 equal ${epsilon2}
variable	epsilon_319320 equal ${epsilon2}
variable	epsilon_322325 equal ${epsilon2}
variable	epsilon_323324 equal ${epsilon2}
variable	epsilon_326329 equal ${epsilon2}
variable	epsilon_327328 equal ${epsilon2}
variable	epsilon_330333 equal ${epsilon2}
variable	epsilon_331332 equal ${epsilon2}
variable	epsilon_334337 equal ${epsilon2}
variable	epsilon_335336 equal ${epsilon2}
variable	epsilon_338341 equal ${epsilon2}
variable	epsilon_339340 equal ${epsilon2}
variable	epsilon_342345 equal ${epsilon2}
variable	epsilon_343344 equal ${epsilon2}
variable	epsilon_346349 equal ${epsilon2}
variable	epsilon_347348 equal ${epsilon2}
variable	epsilon_350353 equal ${epsilon2}
variable	epsilon_351352 equal ${epsilon2}
variable	epsilon_354357 equal ${epsilon2}
variable	epsilon_355356 equal ${epsilon2}
variable	epsilon_358361 equal ${epsilon2}
variable	epsilon_359360 equal ${epsilon2}
variable	epsilon_362365 equal ${epsilon2}
variable	epsilon_363364 equal ${epsilon2}
variable	epsilon_366369 equal ${epsilon2}
variable	epsilon_367368 equal ${epsilon2}
variable	epsilon_370373 equal ${epsilon2}
variable	epsilon_371372 equal ${epsilon2}
variable	epsilon_374377 equal ${epsilon2}
variable	epsilon_375376 equal ${epsilon2}
variable	epsilon_378381 equal ${epsilon2}
variable	epsilon_379380 equal ${epsilon2}
variable	epsilon_382385 equal ${epsilon2}
variable	epsilon_383384 equal ${epsilon2}
variable	epsilon_386389 equal ${epsilon2}
variable	epsilon_387388 equal ${epsilon2}
variable	epsilon_390393 equal ${epsilon2}
variable	epsilon_391392 equal ${epsilon2}
variable	epsilon_394397 equal ${epsilon2}
variable	epsilon_395396 equal ${epsilon2}
variable	epsilon_398401 equal ${epsilon2}
variable	epsilon_399400 equal ${epsilon2}



fix 1 all npt temp 1.0 1.0  1.0 iso 0.01 0.01 10.0
#fix 1 all npt temp 1.0 1.0  1.0 iso 0.1 0.1 10.0
#fix 1 all npt temp 1.0 1.0  1.0 iso 1.0 1.0 10.0




#fix		1 all langevin 1. 1.0 1 ${RandGen}
#fix		2 all nve

######################### Start of Loop #####################################

bond_style      fene
bond_coeff      1       30.0    1.5     1.0     1.0

pair_style lj/smooth/linear 2.5
pair_coeff	* * ${epsilon_11} 1

pair_coeff	2 5 ${epsilon_25} 1
pair_coeff	3 4 ${epsilon_34} 1
pair_coeff	6 9 ${epsilon_69} 1
pair_coeff	7 8 ${epsilon_78} 1
pair_coeff	10 13 ${epsilon_1013} 1
pair_coeff	11 12 ${epsilon_1112} 1
pair_coeff	14 17 ${epsilon_1417} 1
pair_coeff	15 16 ${epsilon_1516} 1
pair_coeff	18 21 ${epsilon_1821} 1
pair_coeff	19 20 ${epsilon_1920} 1
pair_coeff	22 25 ${epsilon_2225} 1
pair_coeff	23 24 ${epsilon_2324} 1
pair_coeff	26 29 ${epsilon_2629} 1
pair_coeff	27 28 ${epsilon_2728} 1
pair_coeff	30 33 ${epsilon_3033} 1
pair_coeff	31 32 ${epsilon_3132} 1
pair_coeff	34 37 ${epsilon_3437} 1
pair_coeff	35 36 ${epsilon_3536} 1
pair_coeff	38 41 ${epsilon_3841} 1
pair_coeff	39 40 ${epsilon_3940} 1
pair_coeff	42 45 ${epsilon_4245} 1
pair_coeff	43 44 ${epsilon_4344} 1
pair_coeff	46 49 ${epsilon_4649} 1
pair_coeff	47 48 ${epsilon_4748} 1
pair_coeff	50 53 ${epsilon_5053} 1
pair_coeff	51 52 ${epsilon_5152} 1
pair_coeff	54 57 ${epsilon_5457} 1
pair_coeff	55 56 ${epsilon_5556} 1
pair_coeff	58 61 ${epsilon_5861} 1
pair_coeff	59 60 ${epsilon_5960} 1
pair_coeff	62 65 ${epsilon_6265} 1
pair_coeff	63 64 ${epsilon_6364} 1
pair_coeff	66 69 ${epsilon_6669} 1
pair_coeff	67 68 ${epsilon_6768} 1
pair_coeff	70 73 ${epsilon_7073} 1
pair_coeff	71 72 ${epsilon_7172} 1
pair_coeff	74 77 ${epsilon_7477} 1
pair_coeff	75 76 ${epsilon_7576} 1
pair_coeff	78 81 ${epsilon_7881} 1
pair_coeff	79 80 ${epsilon_7980} 1
pair_coeff	82 85 ${epsilon_8285} 1
pair_coeff	83 84 ${epsilon_8384} 1
pair_coeff	86 89 ${epsilon_8689} 1
pair_coeff	87 88 ${epsilon_8788} 1
pair_coeff	90 93 ${epsilon_9093} 1
pair_coeff	91 92 ${epsilon_9192} 1
pair_coeff	94 97 ${epsilon_9497} 1
pair_coeff	95 96 ${epsilon_9596} 1
pair_coeff	98 101 ${epsilon_98101} 1
pair_coeff	99 100 ${epsilon_99100} 1
pair_coeff	102 105 ${epsilon_102105} 1
pair_coeff	103 104 ${epsilon_103104} 1
pair_coeff	106 109 ${epsilon_106109} 1
pair_coeff	107 108 ${epsilon_107108} 1
pair_coeff	110 113 ${epsilon_110113} 1
pair_coeff	111 112 ${epsilon_111112} 1
pair_coeff	114 117 ${epsilon_114117} 1
pair_coeff	115 116 ${epsilon_115116} 1
pair_coeff	118 121 ${epsilon_118121} 1
pair_coeff	119 120 ${epsilon_119120} 1
pair_coeff	122 125 ${epsilon_122125} 1
pair_coeff	123 124 ${epsilon_123124} 1
pair_coeff	126 129 ${epsilon_126129} 1
pair_coeff	127 128 ${epsilon_127128} 1
pair_coeff	130 133 ${epsilon_130133} 1
pair_coeff	131 132 ${epsilon_131132} 1
pair_coeff	134 137 ${epsilon_134137} 1
pair_coeff	135 136 ${epsilon_135136} 1
pair_coeff	138 141 ${epsilon_138141} 1
pair_coeff	139 140 ${epsilon_139140} 1
pair_coeff	142 145 ${epsilon_142145} 1
pair_coeff	143 144 ${epsilon_143144} 1
pair_coeff	146 149 ${epsilon_146149} 1
pair_coeff	147 148 ${epsilon_147148} 1
pair_coeff	150 153 ${epsilon_150153} 1
pair_coeff	151 152 ${epsilon_151152} 1
pair_coeff	154 157 ${epsilon_154157} 1
pair_coeff	155 156 ${epsilon_155156} 1
pair_coeff	158 161 ${epsilon_158161} 1
pair_coeff	159 160 ${epsilon_159160} 1
pair_coeff	162 165 ${epsilon_162165} 1
pair_coeff	163 164 ${epsilon_163164} 1
pair_coeff	166 169 ${epsilon_166169} 1
pair_coeff	167 168 ${epsilon_167168} 1
pair_coeff	170 173 ${epsilon_170173} 1
pair_coeff	171 172 ${epsilon_171172} 1
pair_coeff	174 177 ${epsilon_174177} 1
pair_coeff	175 176 ${epsilon_175176} 1
pair_coeff	178 181 ${epsilon_178181} 1
pair_coeff	179 180 ${epsilon_179180} 1
pair_coeff	182 185 ${epsilon_182185} 1
pair_coeff	183 184 ${epsilon_183184} 1
pair_coeff	186 189 ${epsilon_186189} 1
pair_coeff	187 188 ${epsilon_187188} 1
pair_coeff	190 193 ${epsilon_190193} 1
pair_coeff	191 192 ${epsilon_191192} 1
pair_coeff	194 197 ${epsilon_194197} 1
pair_coeff	195 196 ${epsilon_195196} 1
pair_coeff	198 201 ${epsilon_198201} 1
pair_coeff	199 200 ${epsilon_199200} 1
pair_coeff	202 205 ${epsilon_202205} 1
pair_coeff	203 204 ${epsilon_203204} 1
pair_coeff	206 209 ${epsilon_206209} 1
pair_coeff	207 208 ${epsilon_207208} 1
pair_coeff	210 213 ${epsilon_210213} 1
pair_coeff	211 212 ${epsilon_211212} 1
pair_coeff	214 217 ${epsilon_214217} 1
pair_coeff	215 216 ${epsilon_215216} 1
pair_coeff	218 221 ${epsilon_218221} 1
pair_coeff	219 220 ${epsilon_219220} 1
pair_coeff	222 225 ${epsilon_222225} 1
pair_coeff	223 224 ${epsilon_223224} 1
pair_coeff	226 229 ${epsilon_226229} 1
pair_coeff	227 228 ${epsilon_227228} 1
pair_coeff	230 233 ${epsilon_230233} 1
pair_coeff	231 232 ${epsilon_231232} 1
pair_coeff	234 237 ${epsilon_234237} 1
pair_coeff	235 236 ${epsilon_235236} 1
pair_coeff	238 241 ${epsilon_238241} 1
pair_coeff	239 240 ${epsilon_239240} 1
pair_coeff	242 245 ${epsilon_242245} 1
pair_coeff	243 244 ${epsilon_243244} 1
pair_coeff	246 249 ${epsilon_246249} 1
pair_coeff	247 248 ${epsilon_247248} 1
pair_coeff	250 253 ${epsilon_250253} 1
pair_coeff	251 252 ${epsilon_251252} 1
pair_coeff	254 257 ${epsilon_254257} 1
pair_coeff	255 256 ${epsilon_255256} 1
pair_coeff	258 261 ${epsilon_258261} 1
pair_coeff	259 260 ${epsilon_259260} 1
pair_coeff	262 265 ${epsilon_262265} 1
pair_coeff	263 264 ${epsilon_263264} 1
pair_coeff	266 269 ${epsilon_266269} 1
pair_coeff	267 268 ${epsilon_267268} 1
pair_coeff	270 273 ${epsilon_270273} 1
pair_coeff	271 272 ${epsilon_271272} 1
pair_coeff	274 277 ${epsilon_274277} 1
pair_coeff	275 276 ${epsilon_275276} 1
pair_coeff	278 281 ${epsilon_278281} 1
pair_coeff	279 280 ${epsilon_279280} 1
pair_coeff	282 285 ${epsilon_282285} 1
pair_coeff	283 284 ${epsilon_283284} 1
pair_coeff	286 289 ${epsilon_286289} 1
pair_coeff	287 288 ${epsilon_287288} 1
pair_coeff	290 293 ${epsilon_290293} 1
pair_coeff	291 292 ${epsilon_291292} 1
pair_coeff	294 297 ${epsilon_294297} 1
pair_coeff	295 296 ${epsilon_295296} 1
pair_coeff	298 301 ${epsilon_298301} 1
pair_coeff	299 300 ${epsilon_299300} 1
pair_coeff	302 305 ${epsilon_302305} 1
pair_coeff	303 304 ${epsilon_303304} 1
pair_coeff	306 309 ${epsilon_306309} 1
pair_coeff	307 308 ${epsilon_307308} 1
pair_coeff	310 313 ${epsilon_310313} 1
pair_coeff	311 312 ${epsilon_311312} 1
pair_coeff	314 317 ${epsilon_314317} 1
pair_coeff	315 316 ${epsilon_315316} 1
pair_coeff	318 321 ${epsilon_318321} 1
pair_coeff	319 320 ${epsilon_319320} 1
pair_coeff	322 325 ${epsilon_322325} 1
pair_coeff	323 324 ${epsilon_323324} 1
pair_coeff	326 329 ${epsilon_326329} 1
pair_coeff	327 328 ${epsilon_327328} 1
pair_coeff	330 333 ${epsilon_330333} 1
pair_coeff	331 332 ${epsilon_331332} 1
pair_coeff	334 337 ${epsilon_334337} 1
pair_coeff	335 336 ${epsilon_335336} 1
pair_coeff	338 341 ${epsilon_338341} 1
pair_coeff	339 340 ${epsilon_339340} 1
pair_coeff	342 345 ${epsilon_342345} 1
pair_coeff	343 344 ${epsilon_343344} 1
pair_coeff	346 349 ${epsilon_346349} 1
pair_coeff	347 348 ${epsilon_347348} 1
pair_coeff	350 353 ${epsilon_350353} 1
pair_coeff	351 352 ${epsilon_351352} 1
pair_coeff	354 357 ${epsilon_354357} 1
pair_coeff	355 356 ${epsilon_355356} 1
pair_coeff	358 361 ${epsilon_358361} 1
pair_coeff	359 360 ${epsilon_359360} 1
pair_coeff	362 365 ${epsilon_362365} 1
pair_coeff	363 364 ${epsilon_363364} 1
pair_coeff	366 369 ${epsilon_366369} 1
pair_coeff	367 368 ${epsilon_367368} 1
pair_coeff	370 373 ${epsilon_370373} 1
pair_coeff	371 372 ${epsilon_371372} 1
pair_coeff	374 377 ${epsilon_374377} 1
pair_coeff	375 376 ${epsilon_375376} 1
pair_coeff	378 381 ${epsilon_378381} 1
pair_coeff	379 380 ${epsilon_379380} 1
pair_coeff	382 385 ${epsilon_382385} 1
pair_coeff	383 384 ${epsilon_383384} 1
pair_coeff	386 389 ${epsilon_386389} 1
pair_coeff	387 388 ${epsilon_387388} 1
pair_coeff	390 393 ${epsilon_390393} 1
pair_coeff	391 392 ${epsilon_391392} 1
pair_coeff	394 397 ${epsilon_394397} 1
pair_coeff	395 396 ${epsilon_395396} 1
pair_coeff	398 401 ${epsilon_398401} 1
pair_coeff	399 400 ${epsilon_399400} 1



#special_bonds	lj 0.0 0.0 0.0
special_bonds   fene

neighbor	2.0 bin
neigh_modify    every 1 delay 10 check yes

restart         ${Nrestart} restart.${root}

thermo_style	custom step temp pe ke etotal v_epsilon vol press
thermo		${Nf}


fix    extra1 all print 100 "${x1_1} ${y1_1} ${z1_1} ${x1_2} ${y1_2} ${z1_2} ${x1_3} ${y1_3} ${z1_3} ${x1_4} ${y1_4} ${z1_4}  " screen no title "" file N90_E_11_Z_1_P_0_01_M_100_Parallel_chain_1.txt
fix    extra2 all print 100 "${x2_1} ${y2_1} ${z2_1} ${x2_2} ${y2_2} ${z2_2} ${x2_3} ${y2_3} ${z2_3} ${x2_4} ${y2_4} ${z2_4}  " screen no title "" file N90_E_11_Z_1_P_0_01_M_100_Parallel_chain_2.txt
fix    extra3 all print 100 "${x3_1} ${y3_1} ${z3_1} ${x3_2} ${y3_2} ${z3_2} ${x3_3} ${y3_3} ${z3_3} ${x3_4} ${y3_4} ${z3_4}  " screen no title "" file N90_E_11_Z_1_P_0_01_M_100_Parallel_chain_3.txt
fix    extra4 all print 100 "${x4_1} ${y4_1} ${z4_1} ${x4_2} ${y4_2} ${z4_2} ${x4_3} ${y4_3} ${z4_3} ${x4_4} ${y4_4} ${z4_4}  " screen no title "" file N90_E_11_Z_1_P_0_01_M_100_Parallel_chain_4.txt
fix    extra5 all print 100 "${x5_1} ${y5_1} ${z5_1} ${x5_2} ${y5_2} ${z5_2} ${x5_3} ${y5_3} ${z5_3} ${x5_4} ${y5_4} ${z5_4}  " screen no title "" file N90_E_11_Z_1_P_0_01_M_100_Parallel_chain_5.txt
fix    extra6 all print 100 "${x6_1} ${y6_1} ${z6_1} ${x6_2} ${y6_2} ${z6_2} ${x6_3} ${y6_3} ${z6_3} ${x6_4} ${y6_4} ${z6_4}  " screen no title "" file N90_E_11_Z_1_P_0_01_M_100_Parallel_chain_6.txt
fix    extra7 all print 100 "${x7_1} ${y7_1} ${z7_1} ${x7_2} ${y7_2} ${z7_2} ${x7_3} ${y7_3} ${z7_3} ${x7_4} ${y7_4} ${z7_4}  " screen no title "" file N90_E_11_Z_1_P_0_01_M_100_Parallel_chain_7.txt
fix    extra8 all print 100 "${x8_1} ${y8_1} ${z8_1} ${x8_2} ${y8_2} ${z8_2} ${x8_3} ${y8_3} ${z8_3} ${x8_4} ${y8_4} ${z8_4}  " screen no title "" file N90_E_11_Z_1_P_0_01_M_100_Parallel_chain_8.txt
fix    extra9 all print 100 "${x9_1} ${y9_1} ${z9_1} ${x9_2} ${y9_2} ${z9_2} ${x9_3} ${y9_3} ${z9_3} ${x9_4} ${y9_4} ${z9_4}  " screen no title "" file N90_E_11_Z_1_P_0_01_M_100_Parallel_chain_9.txt
fix    extra10 all print 100 "${x10_1} ${y10_1} ${z10_1} ${x10_2} ${y10_2} ${z10_2} ${x10_3} ${y10_3} ${z10_3} ${x10_4} ${y10_4} ${z10_4}  " screen no title "" file N90_E_11_Z_1_P_0_01_M_100_Parallel_chain_10.txt
fix    extra11 all print 100 "${x11_1} ${y11_1} ${z11_1} ${x11_2} ${y11_2} ${z11_2} ${x11_3} ${y11_3} ${z11_3} ${x11_4} ${y11_4} ${z11_4}  " screen no title "" file N90_E_11_Z_1_P_0_01_M_100_Parallel_chain_11.txt
fix    extra12 all print 100 "${x12_1} ${y12_1} ${z12_1} ${x12_2} ${y12_2} ${z12_2} ${x12_3} ${y12_3} ${z12_3} ${x12_4} ${y12_4} ${z12_4}  " screen no title "" file N90_E_11_Z_1_P_0_01_M_100_Parallel_chain_12.txt